param n := 60;
param c := 3000
param : V : p w :=
   0	  49	 379
   1	  57	 293
   2	  66	 328
   3	  74	 470
   4	  68	 251
   5	  57	 279
   6	  11	 411
   7	  30	 253
   8	  77	 336
   9	  57	 414
  10	   4	 276
  11	  60	 310
  12	  92	 418
  13	  66	 286
  14	  61	 296
  15	   1	 378
  16	  97	 296
  17	  12	 326
  18	  35	 428
  19	  97	 281
  20	  89	 291
  21	  85	 455
  22	  62	 264
  23	  44	 281
  24	  52	 494
  25	   5	 252
  26	  70	 254
  27	  20	 478
  28	  11	 258
  29	  44	 264
  30	  19	 409
  31	  80	 287
  32	  82	 304
  33	  90	 425
  34	  60	 256
  35	  30	 319
  36	  85	 402
  37	  58	 252
  38	  94	 346
  39	  67	 403
  40	  28	 283
  41	  78	 314
  42	  62	 401
  43	  63	 284
  44	  85	 315
  45	  42	 434
  46	   2	 282
  47	  71	 284
  48	  99	 496
  49	  17	 251
  50	  55	 253
  51	  11	 491
  52	  78	 253
  53	  67	 256
  54	  21	 498
  55	  25	 250
  56	  31	 252
  57	  99	 379
  58	  51	 264
  59	   6	 357
;

set E :=
   0	   1
   0	   3
   0	   4
   0	   5
   0	   8
   0	  10
   0	  14
   0	  15
   0	  17
   0	  19
   0	  22
   0	  27
   0	  28
   0	  30
   0	  35
   0	  37
   0	  39
   0	  40
   0	  44
   0	  48
   0	  49
   0	  50
   0	  53
   0	  55
   0	  56
   0	  57
   0	  59
   1	   2
   1	   3
   1	   4
   1	   5
   1	   9
   1	  10
   1	  11
   1	  14
   1	  15
   1	  17
   1	  18
   1	  19
   1	  20
   1	  22
   1	  24
   1	  26
   1	  28
   1	  30
   1	  31
   1	  35
   1	  36
   1	  37
   1	  38
   1	  42
   1	  43
   1	  45
   1	  46
   1	  48
   1	  52
   1	  54
   1	  55
   1	  57
   1	  58
   1	  59
   2	   3
   2	   9
   2	  11
   2	  12
   2	  14
   2	  16
   2	  17
   2	  18
   2	  19
   2	  20
   2	  21
   2	  23
   2	  26
   2	  28
   2	  29
   2	  32
   2	  33
   2	  34
   2	  36
   2	  42
   2	  45
   2	  47
   2	  51
   2	  52
   2	  53
   2	  54
   2	  56
   2	  58
   2	  59
   3	   5
   3	   7
   3	  10
   3	  11
   3	  17
   3	  18
   3	  20
   3	  21
   3	  26
   3	  27
   3	  28
   3	  30
   3	  31
   3	  32
   3	  33
   3	  34
   3	  35
   3	  36
   3	  38
   3	  42
   3	  43
   3	  47
   3	  49
   3	  51
   3	  52
   3	  53
   3	  56
   4	   7
   4	   8
   4	   9
   4	  10
   4	  11
   4	  15
   4	  18
   4	  19
   4	  20
   4	  21
   4	  22
   4	  23
   4	  24
   4	  27
   4	  29
   4	  34
   4	  35
   4	  39
   4	  40
   4	  42
   4	  48
   4	  51
   4	  57
   4	  58
   4	  59
   5	   6
   5	   7
   5	   9
   5	  13
   5	  15
   5	  16
   5	  19
   5	  22
   5	  23
   5	  26
   5	  29
   5	  30
   5	  32
   5	  33
   5	  35
   5	  36
   5	  37
   5	  39
   5	  40
   5	  41
   5	  42
   5	  43
   5	  45
   5	  47
   5	  51
   5	  53
   5	  56
   5	  59
   6	   8
   6	  11
   6	  16
   6	  17
   6	  19
   6	  20
   6	  24
   6	  25
   6	  26
   6	  28
   6	  30
   6	  32
   6	  34
   6	  35
   6	  36
   6	  38
   6	  39
   6	  44
   6	  45
   6	  46
   6	  47
   6	  48
   6	  49
   6	  50
   6	  52
   6	  54
   6	  55
   6	  56
   6	  58
   6	  59
   7	   8
   7	   9
   7	  10
   7	  11
   7	  12
   7	  14
   7	  15
   7	  20
   7	  21
   7	  22
   7	  24
   7	  28
   7	  29
   7	  30
   7	  34
   7	  35
   7	  36
   7	  37
   7	  38
   7	  40
   7	  41
   7	  42
   7	  43
   7	  44
   7	  52
   7	  54
   7	  56
   7	  58
   7	  59
   8	   9
   8	  11
   8	  12
   8	  14
   8	  16
   8	  18
   8	  20
   8	  25
   8	  26
   8	  28
   8	  29
   8	  30
   8	  34
   8	  37
   8	  38
   8	  39
   8	  43
   8	  44
   8	  45
   8	  47
   8	  48
   8	  49
   8	  50
   8	  53
   8	  54
   8	  57
   9	  13
   9	  15
   9	  16
   9	  17
   9	  18
   9	  19
   9	  22
   9	  25
   9	  26
   9	  29
   9	  31
   9	  32
   9	  33
   9	  35
   9	  37
   9	  39
   9	  40
   9	  41
   9	  42
   9	  44
   9	  45
   9	  47
   9	  48
   9	  49
   9	  50
   9	  56
   9	  58
  10	  11
  10	  15
  10	  17
  10	  18
  10	  20
  10	  22
  10	  23
  10	  24
  10	  27
  10	  29
  10	  30
  10	  31
  10	  33
  10	  34
  10	  35
  10	  36
  10	  38
  10	  40
  10	  45
  10	  46
  10	  48
  10	  50
  10	  51
  10	  52
  10	  53
  10	  55
  10	  57
  10	  58
  10	  59
  11	  12
  11	  13
  11	  15
  11	  16
  11	  18
  11	  21
  11	  22
  11	  25
  11	  30
  11	  31
  11	  32
  11	  33
  11	  34
  11	  35
  11	  37
  11	  38
  11	  39
  11	  40
  11	  41
  11	  42
  11	  45
  11	  46
  11	  47
  11	  52
  11	  56
  11	  59
  12	  13
  12	  15
  12	  16
  12	  17
  12	  19
  12	  21
  12	  22
  12	  23
  12	  24
  12	  25
  12	  26
  12	  27
  12	  29
  12	  31
  12	  37
  12	  39
  12	  43
  12	  45
  12	  46
  12	  48
  12	  50
  12	  52
  12	  53
  12	  54
  12	  56
  12	  57
  12	  58
  13	  15
  13	  18
  13	  19
  13	  23
  13	  24
  13	  26
  13	  27
  13	  28
  13	  30
  13	  33
  13	  34
  13	  35
  13	  36
  13	  38
  13	  41
  13	  43
  13	  44
  13	  46
  13	  47
  13	  48
  13	  52
  13	  53
  13	  54
  13	  55
  13	  58
  13	  59
  14	  15
  14	  16
  14	  17
  14	  18
  14	  19
  14	  24
  14	  26
  14	  27
  14	  29
  14	  30
  14	  32
  14	  33
  14	  34
  14	  36
  14	  37
  14	  40
  14	  41
  14	  42
  14	  44
  14	  45
  14	  49
  14	  51
  14	  52
  14	  54
  14	  55
  14	  56
  14	  58
  14	  59
  15	  16
  15	  18
  15	  19
  15	  20
  15	  27
  15	  30
  15	  32
  15	  36
  15	  37
  15	  40
  15	  43
  15	  44
  15	  45
  15	  46
  15	  47
  15	  48
  15	  50
  15	  51
  15	  53
  15	  54
  15	  56
  15	  58
  15	  59
  16	  20
  16	  23
  16	  26
  16	  32
  16	  33
  16	  34
  16	  42
  16	  44
  16	  45
  16	  48
  16	  51
  16	  53
  16	  54
  16	  55
  17	  18
  17	  19
  17	  20
  17	  21
  17	  22
  17	  23
  17	  25
  17	  29
  17	  30
  17	  31
  17	  32
  17	  34
  17	  37
  17	  38
  17	  39
  17	  40
  17	  42
  17	  43
  17	  47
  17	  49
  17	  51
  17	  53
  17	  54
  17	  55
  17	  56
  17	  57
  17	  59
  18	  19
  18	  20
  18	  21
  18	  25
  18	  28
  18	  29
  18	  30
  18	  31
  18	  32
  18	  34
  18	  35
  18	  36
  18	  40
  18	  42
  18	  43
  18	  44
  18	  45
  18	  51
  18	  54
  18	  55
  18	  56
  19	  22
  19	  23
  19	  25
  19	  27
  19	  30
  19	  32
  19	  33
  19	  35
  19	  37
  19	  41
  19	  42
  19	  44
  19	  45
  19	  46
  19	  47
  19	  50
  19	  52
  19	  56
  19	  57
  19	  58
  19	  59
  20	  23
  20	  27
  20	  29
  20	  30
  20	  33
  20	  34
  20	  35
  20	  36
  20	  42
  20	  44
  20	  53
  20	  54
  20	  58
  20	  59
  21	  23
  21	  26
  21	  27
  21	  29
  21	  30
  21	  31
  21	  33
  21	  38
  21	  39
  21	  40
  21	  42
  21	  45
  21	  51
  21	  54
  21	  56
  21	  57
  22	  25
  22	  27
  22	  28
  22	  30
  22	  31
  22	  32
  22	  34
  22	  37
  22	  38
  22	  39
  22	  40
  22	  47
  22	  50
  22	  52
  22	  53
  22	  55
  22	  56
  22	  57
  22	  58
  23	  26
  23	  27
  23	  28
  23	  30
  23	  31
  23	  32
  23	  33
  23	  34
  23	  36
  23	  40
  23	  41
  23	  42
  23	  43
  23	  45
  23	  47
  23	  48
  23	  49
  23	  51
  23	  53
  23	  57
  23	  58
  23	  59
  24	  27
  24	  28
  24	  32
  24	  35
  24	  36
  24	  38
  24	  39
  24	  41
  24	  45
  24	  46
  24	  48
  24	  51
  24	  53
  24	  58
  25	  29
  25	  30
  25	  31
  25	  33
  25	  36
  25	  38
  25	  43
  25	  44
  25	  45
  25	  46
  25	  47
  25	  50
  25	  52
  25	  55
  25	  57
  25	  58
  25	  59
  26	  28
  26	  31
  26	  32
  26	  33
  26	  36
  26	  39
  26	  40
  26	  42
  26	  43
  26	  44
  26	  45
  26	  48
  26	  49
  26	  52
  26	  53
  26	  57
  26	  58
  27	  28
  27	  30
  27	  31
  27	  32
  27	  36
  27	  38
  27	  40
  27	  43
  27	  53
  27	  55
  27	  56
  27	  57
  27	  58
  28	  29
  28	  30
  28	  31
  28	  32
  28	  33
  28	  35
  28	  37
  28	  38
  28	  40
  28	  41
  28	  44
  28	  50
  28	  51
  28	  53
  28	  58
  29	  31
  29	  33
  29	  34
  29	  36
  29	  40
  29	  41
  29	  42
  29	  44
  29	  45
  29	  52
  29	  56
  30	  32
  30	  33
  30	  35
  30	  36
  30	  37
  30	  38
  30	  40
  30	  42
  30	  43
  30	  44
  30	  47
  30	  48
  30	  50
  30	  51
  30	  52
  30	  53
  30	  55
  30	  56
  30	  57
  30	  58
  31	  32
  31	  34
  31	  37
  31	  38
  31	  40
  31	  42
  31	  44
  31	  45
  31	  50
  31	  51
  31	  53
  31	  54
  31	  55
  31	  56
  31	  57
  31	  58
  32	  35
  32	  37
  32	  38
  32	  39
  32	  45
  32	  46
  32	  47
  32	  49
  32	  50
  32	  51
  32	  53
  32	  54
  32	  57
  33	  34
  33	  35
  33	  39
  33	  40
  33	  41
  33	  47
  33	  48
  33	  50
  33	  51
  33	  52
  33	  53
  33	  54
  33	  59
  34	  35
  34	  37
  34	  38
  34	  39
  34	  42
  34	  45
  34	  54
  34	  56
  34	  57
  34	  58
  34	  59
  35	  45
  35	  46
  35	  47
  35	  48
  35	  49
  35	  50
  35	  57
  35	  58
  36	  37
  36	  38
  36	  41
  36	  42
  36	  43
  36	  44
  36	  45
  36	  47
  36	  48
  36	  49
  36	  52
  36	  53
  36	  55
  36	  56
  36	  57
  36	  58
  36	  59
  37	  38
  37	  41
  37	  46
  37	  49
  37	  51
  37	  53
  37	  56
  38	  42
  38	  44
  38	  45
  38	  46
  38	  47
  38	  50
  38	  51
  38	  52
  38	  54
  38	  55
  38	  56
  39	  40
  39	  41
  39	  42
  39	  44
  39	  47
  39	  51
  39	  52
  39	  54
  39	  55
  39	  57
  40	  44
  40	  46
  40	  52
  40	  54
  40	  57
  40	  59
  41	  43
  41	  45
  41	  46
  41	  48
  41	  49
  41	  51
  41	  52
  41	  57
  41	  58
  42	  43
  42	  46
  42	  49
  42	  52
  42	  53
  42	  54
  42	  57
  42	  58
  42	  59
  43	  45
  43	  46
  43	  48
  43	  49
  43	  50
  43	  54
  43	  55
  43	  56
  43	  58
  43	  59
  44	  45
  44	  46
  44	  49
  44	  50
  44	  51
  44	  58
  45	  47
  45	  48
  45	  50
  45	  52
  45	  53
  45	  55
  45	  56
  45	  57
  45	  59
  46	  48
  46	  49
  46	  51
  46	  52
  46	  56
  46	  58
  47	  51
  47	  55
  47	  56
  48	  49
  48	  54
  48	  55
  48	  57
  48	  58
  49	  51
  49	  52
  49	  53
  49	  54
  49	  55
  49	  56
  49	  59
  50	  52
  50	  56
  50	  57
  50	  58
  51	  52
  51	  55
  51	  59
  52	  53
  52	  54
  52	  55
  52	  56
  52	  59
  53	  56
  54	  55
  54	  56
  54	  57
  54	  58
  54	  59
  55	  56
  55	  59
  56	  58
  58	  59
;
